
  17    0


   0  10 2 4 5 10 11 12 13 14 15 16 
   5   2 8 3 
   6   2 7 6 
   7   2 9 8 
   7   2 7 6 
   9   1 17
   5   1 17
   1   1 17
   6   1 17
  10   1 17
   5   1 17
   8   1 17
  10   1 17
   6   1 17
   6   1 17
   1   1 17
   0   0 
